WARNING: for repeatability, setting FPU to use double precision
============================[ Problem Statistics ]=============================
|                                                                             |
|  Number of variables:          2478                                         |
|  Number of clauses:           56766                                         |
|  Parse time:                   0.01 s                                       |
|                                                                             |
c ============================[ Search Statistics ]==============================
c | Conflicts |          ORIGINAL         |          LEARNT          | Progress |
c |           |    Vars  Clauses Literals |    Limit  Clauses Lit/Cl |          |
c ===============================================================================
c Switched to VSIDS.
c Switched to LRB.
c Switched to VSIDS.
c Switched to LRB.
c Switched to VSIDS.
c Switched to LRB.
c Switched to VSIDS.
c Switched to LRB.
c Switched to VSIDS.
c Switched to LRB.
c Switched to VSIDS.
c Switched to LRB.
c Switched to VSIDS.
c Switched to LRB.
c Switched to VSIDS.
c Switched to LRB.
c Switched to VSIDS.
c Switched to LRB.
c Switched to VSIDS.
c Switched to LRB.
c Switched to VSIDS.
c Switched to LRB.
c Switched to VSIDS.
c Switched to LRB.
c Switched to VSIDS.
c Switched to LRB.
c Switched to VSIDS.
c Switched to LRB.
c Switched to VSIDS.
c ===============================================================================
restarts                  : 77264
conflicts                 : 16264578       (4598 /sec)
decisions                 : 42000803       (0.00 % random) (11873 /sec)
propagations              : 4761326380     (1345977 /sec)
conflict literals         : 1967869085     (39.97 % deleted)

conflicts w/ DIP found    : 5107200        (31.40 % of conflicts)
conflicts w/ dangerous DIP: 0              (0.00 % of conflicts)
conflicts w/ DIP-learning : 133509         (0.82 % of conflicts)
decisions on ext vars     : 3758499        (8.95 % of decisions)
total ext vars            : 3979        
tried delete ext vars     : 2           
deleted ext vars          : 2           
max ext vars              : 3977        

Memory used               : 428.00 MB
CPU time                  : 3537.45 s
DIP computation time      : 94.0265 s (2.66 % of total time)
ER_sel time               : 22.4337 s
ER_add time               : 0.018719 s
ER_delC time              : 0 s
ER_delV time              : 9.3e-05 s
ER_sub time               : 26.5163 s
ER_stat time              : 0 s

INDETERMINATE
